words_hard_train/3159.qaiger
aag 87 16 0 1 71
2
4
8
12
20
24
28
34
42
56
68
86
92
100
136
156
175
6 2 4
10 8 4
14 11 13
16 15 4
18 7 17
22 18 21
26 22 25
30 26 29
32 31 4
36 33 34
38 35 4
40 38 31
44 41 43
46 37 44
48 46 34
50 27 4
52 51 28
54 50 29
58 55 57
60 53 58
62 60 28
64 23 4
66 65 24
70 67 69
72 70 65
74 70 24
76 73 75
78 76 25
80 59 29
82 79 81
84 10 12
88 84 87
90 16 3
94 91 93
96 88 94
98 97 3
102 22 101
104 103 21
106 99 105
108 17 2
110 94 109
112 89 111
114 106 113
116 19 20
118 116 101
120 115 119
122 120 75
124 82 123
126 63 125
128 49 126
130 45 35
132 129 131
134 38 30
138 135 137
140 138 4
142 132 141
144 5 136
146 143 145
148 14 87
150 149 119
152 150 112
154 152 103
158 157 9
160 154 159
162 160 47
164 162 138
166 76 61
168 164 166
170 147 169
172 146 168
174 171 173
i0 1 x2[2]
i1 1 x2[7]
i2 1 x2[0]
i3 1 x2[1]
i4 1 x2[3]
i5 1 x2[4]
i6 1 x2[5]
i7 1 x2[6]
i8 2 y2[6]
i9 2 y2[5]
i10 2 y2[4]
i11 2 y2[1]
i12 2 y2[2]
i13 2 y2[3]
i14 2 y2[7]
i15 2 y2[0]
o0 bv[0]
c
simplified
  >=
    1 x2
    add
      or
        2 y2
        abs
          1 x2
      1
