words_hard_train/3159.qaiger.qdimacs
p cnf 87 214
a 1 2 4 6 10 12 14 17 0
e 3 5 7 8 9 11 13 15 16 18 19 20 21 22 23 24 25 26 27 28 29 30 31 32 33 34 35 36 37 38 39 40 41 42 43 44 45 46 47 48 49 50 51 52 53 54 55 56 57 58 59 60 61 62 63 64 65 66 67 68 69 70 71 72 73 74 75 76 77 78 79 80 81 82 83 84 85 86 87 0
-1 -2 3 0
1 -3 0
2 -3 0
-4 -2 5 0
4 -5 0
2 -5 0
5 6 7 0
-5 -7 0
-6 -7 0
7 -2 8 0
-7 -8 0
2 -8 0
3 8 9 0
-3 -9 0
-8 -9 0
-9 10 11 0
9 -11 0
-10 -11 0
-11 12 13 0
11 -13 0
-12 -13 0
-13 14 15 0
13 -15 0
-14 -15 0
15 -2 16 0
-15 -16 0
2 -16 0
16 -17 18 0
-16 -18 0
17 -18 0
17 -2 19 0
-17 -19 0
2 -19 0
-19 15 20 0
19 -20 0
-15 -20 0
20 21 22 0
-20 -22 0
-21 -22 0
18 -22 23 0
-18 -23 0
22 -23 0
-23 -17 24 0
23 -24 0
17 -24 0
13 -2 25 0
-13 -25 0
2 -25 0
25 -14 26 0
-25 -26 0
14 -26 0
-25 14 27 0
25 -27 0
-14 -27 0
27 28 29 0
-27 -29 0
-28 -29 0
26 -29 30 0
-26 -30 0
29 -30 0
-30 -14 31 0
30 -31 0
14 -31 0
11 -2 32 0
-11 -32 0
2 -32 0
32 -12 33 0
-32 -33 0
12 -33 0
33 34 35 0
-33 -35 0
-34 -35 0
-35 32 36 0
35 -36 0
-32 -36 0
-35 -12 37 0
35 -37 0
12 -37 0
36 37 38 0
-36 -38 0
-37 -38 0
-38 12 39 0
38 -39 0
-12 -39 0
29 14 40 0
-29 -40 0
-14 -40 0
39 40 41 0
-39 -41 0
-40 -41 0
-5 -6 42 0
5 -42 0
6 -42 0
-42 43 44 0
42 -44 0
-43 -44 0
-8 1 45 0
8 -45 0
-1 -45 0
45 46 47 0
-45 -47 0
-46 -47 0
-44 -47 48 0
44 -48 0
47 -48 0
48 1 49 0
-48 -49 0
-1 -49 0
-11 50 51 0
11 -51 0
-50 -51 0
51 10 52 0
-51 -52 0
-10 -52 0
49 52 53 0
-49 -53 0
-52 -53 0
8 -1 54 0
-8 -54 0
1 -54 0
-47 54 55 0
47 -55 0
-54 -55 0
44 55 56 0
-44 -56 0
-55 -56 0
-53 56 57 0
53 -57 0
-56 -57 0
9 -10 58 0
-9 -58 0
10 -58 0
-58 50 59 0
58 -59 0
-50 -59 0
57 59 60 0
-57 -60 0
-59 -60 0
-60 37 61 0
60 -61 0
-37 -61 0
-41 61 62 0
41 -62 0
-61 -62 0
31 62 63 0
-31 -63 0
-62 -63 0
24 -63 64 0
-24 -64 0
63 -64 0
22 17 65 0
-22 -65 0
-17 -65 0
64 65 66 0
-64 -66 0
-65 -66 0
-19 -15 67 0
19 -67 0
15 -67 0
67 68 69 0
-67 -69 0
-68 -69 0
-69 -2 70 0
69 -70 0
2 -70 0
-66 70 71 0
66 -71 0
-70 -71 0
2 -68 72 0
-2 -72 0
68 -72 0
71 72 73 0
-71 -73 0
-72 -73 0
-7 43 74 0
7 -74 0
-43 -74 0
74 59 75 0
-74 -75 0
-59 -75 0
-75 -56 76 0
75 -76 0
56 -76 0
-76 51 77 0
76 -77 0
-51 -77 0
78 4 79 0
-78 -79 0
-4 -79 0
-77 79 80 0
77 -80 0
-79 -80 0
-80 23 81 0
80 -81 0
-23 -81 0
-81 -69 82 0
81 -82 0
69 -82 0
-38 30 83 0
38 -83 0
-30 -83 0
-82 -83 84 0
82 -84 0
83 -84 0
73 84 85 0
-73 -85 0
-84 -85 0
-73 -84 86 0
73 -86 0
84 -86 0
85 86 87 0
-85 -87 0
-86 -87 0
-87 0
